Version identifier: 20.1.0.0 | 2020-11-10 | 9bedb6d68
CPXPARAM_Threads                                 1
CPXPARAM_TimeLimit                               7200
CPXPARAM_MIP_Tolerances_MIPGap                   0
Generic callback                                 0x60
1 of 1 MIP starts provided solutions.
MIP start 'm1' defined initial solution with objective 1760.4250.
Tried aggregator 1 time.
Reduced MIP has 1 rows, 801 columns, and 800 nonzeros.
Reduced MIP has 800 binaries, 0 generals, 0 SOSs, and 0 indicators.
Presolve time = 0.00 sec. (0.24 ticks)
Probing time = 0.00 sec. (0.09 ticks)
Tried aggregator 1 time.
Reduced MIP has 1 rows, 801 columns, and 800 nonzeros.
Reduced MIP has 800 binaries, 0 generals, 0 SOSs, and 0 indicators.
Presolve time = 0.00 sec. (0.25 ticks)
Probing time = 0.00 sec. (0.09 ticks)
MIP emphasis: balance optimality and feasibility.
MIP search method: dynamic search.
Parallel mode: none, using 1 thread.
Root relaxation solution time = 0.00 sec. (0.17 ticks)

        Nodes                                         Cuts/
   Node  Left     Objective  IInf  Best Integer    Best Bound    ItCnt     Gap

*     0+    0                         1760.4250     4368.0000           148.12%
      0     0     2387.0676     2     1760.4250     4368.0000        0  148.12%
      0     0     2131.9926     4     1760.4250 UserPurge2: 1       16   21.11%
      0     0     2064.0240     5     1760.4250 UserPurge2: 1       26   17.25%
      0     0     2023.9781     6     1760.4250 UserPurge2: 1       38   14.97%
      0     0     2000.9770     8     1760.4250 UserPurge2: 1       55   13.66%
      0     0     1975.2357     9     1760.4250 UserPurge2: 1       77   12.20%
      0     0     1960.7401    10     1760.4250 UserPurge2: 1      103   11.38%
      0     0     1937.3346    10     1760.4250 UserPurge2: 1      137   10.05%
      0     0     1927.1374     9     1760.4250 UserPurge2: 1      153    9.47%
      0     0     1913.1302     9     1760.4250 UserPurge2: 1      172    8.67%
      0     0     1900.2505     7     1760.4250 UserPurge2: 1      207    7.94%
      0     0     1894.1301     8     1760.4250 UserPurge1: 1      212    7.60%
      0     0     1891.0935     9     1760.4250 UserPurge1: 1      215    7.42%
      0     0     1887.6607     9     1760.4250 UserPurge2: 1      234    7.23%
      0     0     1879.2183     9     1760.4250 UserPurge2: 1      263    6.75%
      0     0     1871.6387     8     1760.4250 UserPurge2: 1      282    6.32%
      0     0     1871.4370     8     1760.4250 UserPurge1: 1      287    6.31%
      0     0     1870.5305     9     1760.4250 UserPurge2: 1      291    6.25%
      0     0     1869.1802    10     1760.4250 UserPurge2: 1      299    6.18%
      0     0     1865.3988    10     1760.4250 UserPurge2: 1      312    5.96%
      0     0     1856.9503    10     1760.4250 UserPurge2: 1      335    5.48%
      0     0     1849.3349    10     1760.4250 UserPurge2: 1      355    5.05%
      0     0     1844.0867     9     1760.4250 UserPurge2: 1      379    4.75%
      0     0     1839.9913    10     1760.4250 UserPurge2: 1      395    4.52%
      0     0     1837.8038    10     1760.4250 UserPurge2: 1      419    4.40%
      0     0     1837.0009    10     1760.4250 UserPurge2: 1      433    4.35%
      0     0     1835.8331    11     1760.4250 UserPurge2: 1      447    4.28%
      0     0     1835.1859    12     1760.4250 UserPurge2: 1      459    4.25%
      0     0     1834.9513    13     1760.4250 UserPurge2: 1      470    4.23%
      0     0     1834.5638    14     1760.4250 UserPurge2: 1      487    4.21%
      0     0     1832.4728    13     1760.4250 UserPurge2: 1      507    4.09%
      0     0     1828.2891    10     1760.4250 UserPurge2: 1      535    3.85%
      0     0     1827.8568    11     1760.4250 UserPurge2: 1      547    3.83%
      0     0     1826.6178    12     1760.4250 UserPurge2: 1      561    3.76%
      0     0     1824.0610    11     1760.4250 UserPurge2: 1      581    3.61%
      0     0     1821.7635    12     1760.4250 UserPurge2: 1      596    3.48%
      0     0     1820.6579    11     1760.4250 UserPurge2: 1      610    3.42%
      0     0     1820.0711    11     1760.4250 UserPurge2: 1      620    3.39%
      0     0     1819.5100    12     1760.4250 UserPurge2: 1      632    3.36%
      0     0     1819.2031    13     1760.4250 UserPurge2: 1      640    3.34%
      0     0     1818.7304    14     1760.4250 UserPurge2: 1      652    3.31%
      0     0     1818.3328    14     1760.4250 UserPurge2: 1      666    3.29%
      0     0     1814.7578    12     1760.4250 UserPurge2: 1      705    3.09%
      0     0     1814.3491    12     1760.4250 UserPurge2: 1      717    3.06%
      0     0     1814.1033    12     1760.4250 UserPurge2: 1      724    3.05%
      0     0     1813.1385    11     1760.4250 UserPurge2: 1      736    2.99%
      0     0     1813.0431    12     1760.4250 UserPurge2: 1      740    2.99%
      0     0     1812.8257    13     1760.4250 UserPurge2: 1      745    2.98%
      0     0     1812.3303    13     1760.4250 UserPurge2: 1      764    2.95%
*     0+    0                         1764.5753     1812.3303             2.71%
      0     0     1811.2778    12     1764.5753 UserPurge2: 1      771    2.65%
      0     0     1810.9594    13     1764.5753 UserPurge2: 1      782    2.63%
      0     0     1810.4537    14     1764.5753 UserPurge2: 1      804    2.60%
      0     0     1809.4197    14     1764.5753 UserPurge2: 1      825    2.54%
      0     0     1808.3985    14     1764.5753 UserPurge2: 1      843    2.48%
      0     0     1807.6989    15     1764.5753 UserPurge2: 1      863    2.44%
      0     0     1806.4558    13     1764.5753 UserPurge2: 1      887    2.37%
      0     0     1805.8656    14     1764.5753 UserPurge2: 1      897    2.34%
      0     0     1804.6125    12     1764.5753 UserPurge2: 1      923    2.27%
      0     0     1804.3228    12     1764.5753 UserPurge2: 1      929    2.25%
      0     0     1804.2127    13     1764.5753 UserPurge2: 1      934    2.25%
      0     0     1804.0615    14     1764.5753 UserPurge2: 1      941    2.24%
      0     0     1803.6257    15     1764.5753 UserPurge2: 1      952    2.21%
      0     0     1802.9767    13     1764.5753 UserPurge2: 1      969    2.18%
      0     0     1802.8694    14     1764.5753 UserPurge2: 1      976    2.17%
      0     0     1802.8255    15     1764.5753 UserPurge2: 1      983    2.17%
      0     0     1802.5079    16     1764.5753 UserPurge2: 1      999    2.15%
      0     0     1802.4369    17     1764.5753 UserPurge2: 1     1005    2.15%
      0     0     1802.1661    17     1764.5753 UserPurge2: 1     1012    2.13%
      0     0     1801.6370    15     1764.5753 UserPurge2: 1     1037    2.10%
      0     0     1801.3858    14     1764.5753 UserPurge2: 1     1048    2.09%
      0     0     1801.1660    15     1764.5753 UserPurge2: 1     1059    2.07%
      0     0     1801.0372    15     1764.5753 UserPurge2: 1     1070    2.07%
      0     0     1800.9103    16     1764.5753 UserPurge2: 1     1079    2.06%
*     0+    0                         1765.9801     1800.9103             1.98%
      0     0     1800.6067    17     1765.9801 UserPurge2: 1     1092    1.96%
      0     0     1800.4459    16     1765.9801 UserPurge2: 1     1104    1.95%
      0     0     1800.3053    17     1765.9801 UserPurge2: 1     1115    1.94%
      0     0     1800.1690    17     1765.9801 UserPurge2: 1     1125    1.94%
      0     0     1799.8283    17     1765.9801 UserPurge2: 1     1135    1.92%
      0     0     1799.5708    17     1765.9801 UserPurge2: 1     1158    1.90%
      0     0     1799.4894    18     1765.9801 UserPurge2: 1     1163    1.90%
      0     0     1799.3031    19     1765.9801 UserPurge2: 1     1184    1.89%
      0     0     1798.9288    19     1765.9801 UserPurge2: 1     1209    1.87%
      0     0     1798.4383    19     1765.9801 UserPurge2: 1     1228    1.84%
      0     0     1798.0080    20     1765.9801 UserPurge2: 1     1242    1.81%
      0     0     1797.7542    20     1765.9801 UserPurge2: 1     1258    1.80%
      0     0     1797.2669    19     1765.9801 UserPurge2: 1     1279    1.77%
      0     0     1796.6294    16     1765.9801 UserPurge2: 1     1301    1.74%
      0     0     1796.4156    17     1765.9801 UserPurge2: 1     1313    1.72%
      0     0     1796.1044    17     1765.9801 UserPurge2: 1     1328    1.71%
      0     0     1795.9093    18     1765.9801 UserPurge2: 1     1335    1.69%
      0     0     1795.5907    19     1765.9801 UserPurge2: 1     1348    1.68%
      0     0     1795.2469    19     1765.9801 UserPurge2: 1     1373    1.66%
      0     0     1795.1399    20     1765.9801 UserPurge2: 1     1386    1.65%
*     0+    0                         1772.8585     1795.1399             1.26%
      0     0     1794.5136    19     1772.8585 UserPurge2: 1     1410    1.22%
      0     0     1794.3578    19     1772.8585 UserPurge2: 1     1425    1.21%
      0     0     1794.1430    20     1772.8585 UserPurge2: 1     1445    1.20%
      0     0     1794.0711    19     1772.8585 UserPurge2: 1     1458    1.20%
      0     0     1793.8945    19     1772.8585 UserPurge2: 1     1475    1.19%
      0     0     1793.7100    19     1772.8585 UserPurge2: 1     1495    1.18%
      0     0     1793.6656    20     1772.8585 UserPurge2: 1     1505    1.17%
      0     0     1793.5831    21     1772.8585 UserPurge2: 1     1513    1.17%
      0     0     1793.4989    22     1772.8585 UserPurge2: 1     1529    1.16%
*     0+    0                         1773.9718     1793.4989             1.10%
      0     2     1793.4989    22     1773.9718     1793.4884     1529    1.10%
Elapsed time = 31.64 sec. (489.42 ticks, tree = 0.01 MB, solutions = 5)
      1     3     1780.6263    17     1773.9718     1793.4884    21509    1.10%
      2     4     1775.1092    21     1773.9718     1780.6261    24125    0.38%
      3     5     1779.8471    14     1773.9718     1780.6259    41974    0.38%
      4     6     1779.8332    13     1773.9718     1780.6259    44177    0.38%
      5     7     1779.7237    20     1773.9718     1780.6259    61358    0.38%
      6     8     1778.2102    14     1773.9718     1780.6259    70937    0.38%
      7     9     1778.0886    15     1773.9718     1780.6259    73559    0.38%
*     8     6      integral     0     1776.6060     1780.6259    73797    0.23%
      9     7     1777.4981    16     1776.6060     1780.6259    81363    0.23%
*    10+    6                         1776.9025     1780.6259             0.21%
     10     8     1777.6184    10     1776.9025     1780.6259    82527    0.21%
Elapsed time = 830.59 sec. (285097.48 ticks, tree = 0.30 MB, solutions = 7)
     11     9     1777.4905    10     1776.9025     1780.6259    83425    0.21%
     13     9     1777.4037     9     1776.9025     1780.6259    84298    0.21%
     14    10     1777.2552     7     1776.9025     1780.6259    84732    0.21%
     15    11     1777.2297     4     1776.9025     1780.6259    85026    0.21%
     16    12     1777.1021     4     1776.9025     1780.6259    85613    0.21%
*    17    11      integral     0     1776.9164     1780.6259    85664    0.21%
     18    12     1777.0956     8     1776.9164     1780.6259    85910    0.21%
     20    12     1777.0771     4     1776.9164     1780.6259    86038    0.21%
     21    13     1777.0459     6     1776.9164     1780.6259    86208    0.21%
     23    13     1777.0317     4     1776.9164     1780.6259    86312    0.21%
*    24    12      integral     0     1776.9373     1780.6259    86343    0.21%
     26    12     1777.6854    14     1776.9373     1779.8471    98699    0.16%
Elapsed time = 1236.47 sec. (432117.31 ticks, tree = 0.68 MB, solutions = 9)
     27    13     1777.4727    14     1776.9373     1779.8471   102647    0.16%
*    28     9      integral     0     1777.2980     1779.8471   103042    0.14%
     28     9     1777.2980     0     1777.2980     1779.8471   103042    0.14%
     29     8        cutoff           1777.2980     1779.8471   103639    0.14%
*    30     6      integral     0     1777.4482     1779.8471   103691    0.13%
     31     7     1778.3479     6     1777.4482     1779.7237   111704    0.13%
     32     8     1778.3210     6     1777.4482     1779.7237   113504    0.13%
     33     9     1778.2790    17     1777.4482     1779.7237   116534    0.13%
     34    10     1778.0853     9     1777.4482     1779.7237   121488    0.13%
     35    11     1777.8691     9     1777.4482     1779.7237   127177    0.13%
     36    12     1777.7332    10     1777.4482     1779.7237   131957    0.13%
Elapsed time = 1880.85 sec. (799308.63 ticks, tree = 0.94 MB, solutions = 11)
     37    13     1777.6287     9     1777.4482     1779.7237   134038    0.13%
     38    14     1777.5523    15     1777.4482     1779.7237   136964    0.13%
     39    13        cutoff           1777.4482     1779.7237   137670    0.13%
     41    13     1779.1736    18     1777.4482     1779.7237   156942    0.13%
     42    14     1779.0817    28     1777.4482     1779.7237   167399    0.13%
     43    15     1777.7945    31     1777.4482     1779.7237   190428    0.13%
     44    16     1777.5686    46     1777.4482     1779.7237   210855    0.13%
     45    17     1777.4490    35     1777.4482     1779.7237   224886    0.13%
     48    16     1778.9680     9     1777.4482     1779.1736   231462    0.10%
     49    17     1778.8225    11     1777.4482     1779.1736   235989    0.10%
Elapsed time = 4896.16 sec. (2825348.45 ticks, tree = 2.17 MB, solutions = 11)
     50    18     1778.7364    24     1777.4482     1779.1736   241189    0.10%
     51    19     1778.5956     9     1777.4482     1779.1736   244070    0.10%
     52    20     1778.3900    16     1777.4482     1779.1736   249393    0.10%
     53    21     1778.2649    16     1777.4482     1779.1736   255254    0.10%
     54    22     1778.1999    15     1777.4482     1779.1736   260174    0.10%
     55    23     1778.0518    20     1777.4482     1779.1736   269952    0.10%
     56    24     1778.0009    19     1777.4482     1779.1736   274306    0.10%
     57    25     1777.8621    15     1777.4482     1779.1736   280526    0.10%
     58    26     1777.4576    10     1777.4482     1779.1736   287008    0.10%
     61    23        cutoff           1777.4482     1779.0814   287740    0.09%
Elapsed time = 6489.19 sec. (4099917.36 ticks, tree = 4.37 MB, solutions = 11)
     62    24     1777.6925    22     1777.4482     1778.9675   303391    0.09%
     63    23        cutoff           1777.4482     1778.9675   303735    0.09%
     64    22        cutoff           1777.4482     1778.9675   304457    0.09%
     65    23     1778.2101     2     1777.4482     1778.8224   304803    0.08%
     66    24     1778.1082     2     1777.4482     1778.8224   304820    0.08%
     67    24     1778.0315     2     1777.4482     1778.8224   304834    0.08%
*    68    16      integral     0     1777.7959     1778.8224   304836    0.06%
     69    17     1777.9468     2     1777.7959     1778.7363   305256    0.05%
*    72    12      integral     0     1777.9614     1778.5954   305800    0.04%
     73    11        cutoff           1777.9614     1778.3899   306010    0.02%
     75     9        cutoff           1777.9614     1778.3209   306200    0.02%
Elapsed time = 7107.64 sec. (4516010.45 ticks, tree = 2.10 MB, solutions = 13)
     77     7        cutoff           1777.9614     1778.2648   306683    0.02%
     78     6        cutoff           1777.9614     1778.2096   306979    0.01%
*    79     4      integral     0     1778.0043     1778.2096   307005    0.01%
     79     4     1778.0043     0     1778.0043     1778.1999   307005    0.01%
     80     3        cutoff           1778.0043     1778.0848   307174    0.00%
     82     1        cutoff           1778.0043     1778.0516   307261    0.00%

User cuts applied:  44190

Root node processing (before b&c):
  Real time             =   31.72 sec. (590.94 ticks)
Sequential b&c:
  Real time             = 7100.37 sec. (4533820.06 ticks)
                          ------------
Total (root+branch&cut) = 7132.09 sec. (4534411.00 ticks)
@Parameters: 
is_S_cut                                true
is_add_all_yinF                         true
is_start_value                          true
is_usercut                              true
is_visualization                        false
uc_only_rootnode                        false

data                                    Qi
fn                                      data/Qi/instance_800_800.csv
mode                                    NewSubmodular
solver                                  cplex

p                                       5
r                                       10

EPS                                     1.0e-06
EPS_vio                                 1.0e-04
beta                                    0.10
gap                                     0.00
nodelimit                               Inf
timelimit                               7200.00


@PrintInfos
ItCnt: 307287
Current gap: 0.00 %
Termination Status: OPTIMAL
Primal Status: FEASIBLE_POINT
Solve Time: 7132.09 sec
Objective Value: 1778.004328
Number of Nodes:     84

CutInfo: [phase] num / time (sec) 
ZLP             [phase1]     0 / 0.00 [rLC]     0 / 0.00 [rUC]     0 / 0.00 [sLC]     0 / 0.00 [sUC]     0 / 0.00 
OldSubmodular   [phase1]     0 / 0.00 [rLC]     0 / 0.00 [rUC]     0 / 0.00 [sLC]     0 / 0.00 [sUC]     0 / 0.00 
NewSubmodular   [phase1]     0 / 0.00 [rLC]   152 / 18.88 [rUC]   260 / 10.28 [sLC]     1 / 13.74 [sUC] 44158 / 2582.87 
PMP             [phase1]     0 / 0.00 [rLC]    10 / 13.71 [rUC]     0 / 0.00 [sLC]    10 / 13.56 [sUC]   106 / 149.21 
Separation Round: [phase1] 0  [rLC] 79  [rUC] 103  [sLC] 10  [sUC] 9937
Root Best Bound 1780.626052
Root Best Integer: 1773.971796
Best Bound: 1778.004328
Best Integer: 1778.004328

